
%FILE DATA:	Soccer Computational Problem for MiniZinc Models	%
%AUTHOR:	Jack Wall	%
%CONTACT:  	116397063@umail.ucc.ie			%
%LAST UPDATE:	03/12/2020, 10:36:46						%
%DESCRIPTION: 	117 games played with 39 games left				%


n=13; %number of teams

%Games to play
games=[|9,8|2,8|1,3|13,7|11,10|6,7|4,9|4,11|1,10|2,1|9,10|12,3|8,4|5,10|5,9|10,5|5,12|6,11|5,2|13,9|13,1|3,10|8,7|2,9|4,5|6,1|9,12|2,4|8,5|2,12|4,1|11,1|1,9|4,2|10,4|7,8|3,7|11,5|10,9|];

%Initial points
iPoints=[17,14,23,17,21,25,31,26,14,28,28,39,30];

%POSITION CONSTRAINTS
% [|teamID, operator, position|...]
% operators index:
%  1 for =  operator
%  2 for >  operator
%  3 for >= operator
%  4 for <  operator
%  5 for <= operator
positionConstraints=[|12,3,1|7,3,2|11,2,2|5,4,5|10,1,5|];